m = 5; % number of couriers
n = 8; % number of packages

l = [11, 18, 17, 8, 16]; % maximum carriable weight per courier
s = [9, 8, 9, 4, 7, 7, 6, 5]; % weight of each package

D = % distance matrix 
	 [| 7, 12, 5, 9, 10, 11, 5, 5, 6
	 | 10, 6, 6, 11, 8, 6, 8, 10, 10
	 | 3, 3, 6, 12, 9, 7, 5, 8, 3
	 | 11, 7, 5, 5, 12, 7, 7, 6, 11
	 | 5, 11, 11, 6, 12, 6, 8, 8, 8
	 | 6, 7, 3, 12, 7, 12, 3, 4, 4
	 | 11, 7, 6, 7, 10, 8, 6, 9, 6
	 | 9, 9, 9, 9, 5, 9, 8, 10, 3
	 | 12, 5, 5, 3, 4, 4, 3, 6, 5
	 |];